(set-logic ALL)
(declare-const lines String)
(declare-const parameters String)
(assert (< 0 (str.len lines)))
(assert (not (str.contains (str.at lines 0) "Rate parameters:")))
(assert (not (str.contains (str.at lines 0) "rate: ")))
(assert (not (str.contains (str.at lines 0) "matrix Q")))
(assert (not (str.contains (str.at lines 0) "alpha")))
(assert (not (str.contains (str.at lines 0) "rho")))
(assert (not (str.contains (str.at lines 0) "transition probabilities")))
(assert (< 1 (str.len lines)))
(assert (not (str.contains (str.at lines 1) "Rate parameters:")))
(assert (not (str.contains (str.at lines 1) "rate: ")))
(assert (not (str.contains (str.at lines 1) "matrix Q")))
(assert (not (str.contains (str.at lines 1) "alpha")))
(assert (not (str.contains (str.at lines 1) "rho")))
(assert (not (str.contains (str.at lines 1) "transition probabilities")))
(assert (< 2 (str.len lines)))
(assert (not (str.contains (str.at lines 2) "Rate parameters:")))
(assert (not (str.contains (str.at lines 2) "rate: ")))
(assert (not (str.contains (str.at lines 2) "matrix Q")))
(assert (not (str.contains (str.at lines 2) "alpha")))
(assert (not (str.contains (str.at lines 2) "rho")))
(assert (not (str.contains (str.at lines 2) "transition probabilities")))
(assert (< 3 (str.len lines)))
(assert (not (str.contains (str.at lines 3) "Rate parameters:")))
(assert (not (str.contains (str.at lines 3) "rate: ")))
(assert (not (str.contains (str.at lines 3) "matrix Q")))
(assert (not (str.contains (str.at lines 3) "alpha")))
(assert (not (str.contains (str.at lines 3) "rho")))
(assert (not (str.contains (str.at lines 3) "transition probabilities")))
(assert (< 4 (str.len lines)))
(assert (not (str.contains (str.at lines 4) "Rate parameters:")))
(assert (not (str.contains (str.at lines 4) "rate: ")))
(assert (not (str.contains (str.at lines 4) "matrix Q")))
(assert (not (str.contains (str.at lines 4) "alpha")))
(assert (not (str.contains (str.at lines 4) "rho")))
(assert (not (str.contains (str.at lines 4) "transition probabilities")))
(assert (< 5 (str.len lines)))
(assert (not (str.contains (str.at lines 5) "Rate parameters:")))
(assert (not (str.contains (str.at lines 5) "rate: ")))
(assert (not (str.contains (str.at lines 5) "matrix Q")))
(assert (not (str.contains (str.at lines 5) "alpha")))
(assert (not (str.contains (str.at lines 5) "rho")))
(assert (not (str.contains (str.at lines 5) "transition probabilities")))
(assert (< 6 (str.len lines)))
(assert (not (str.contains (str.at lines 6) "Rate parameters:")))
(assert (not (str.contains (str.at lines 6) "rate: ")))
(assert (not (str.contains (str.at lines 6) "matrix Q")))
(assert (not (str.contains (str.at lines 6) "alpha")))
(assert (not (str.contains (str.at lines 6) "rho")))
(assert (not (str.contains (str.at lines 6) "transition probabilities")))
(assert (< 7 (str.len lines)))
(assert (not (str.contains (str.at lines 7) "Rate parameters:")))
(assert (not (str.contains (str.at lines 7) "rate: ")))
(assert (not (str.contains (str.at lines 7) "matrix Q")))
(assert (not (str.contains (str.at lines 7) "alpha")))
(assert (not (str.contains (str.at lines 7) "rho")))
(assert (not (str.contains (str.at lines 7) "transition probabilities")))
(assert (< 8 (str.len lines)))
(assert (not (str.contains (str.at lines 8) "Rate parameters:")))
(assert (not (str.contains (str.at lines 8) "rate: ")))
(assert (not (str.contains (str.at lines 8) "matrix Q")))
(assert (not (str.contains (str.at lines 8) "alpha")))
(assert (not (str.contains (str.at lines 8) "rho")))
(assert (not (str.contains (str.at lines 8) "transition probabilities")))
(assert (< 9 (str.len lines)))
(assert (not (str.contains (str.at lines 9) "Rate parameters:")))
(assert (not (str.contains (str.at lines 9) "rate: ")))
(assert (not (str.contains (str.at lines 9) "matrix Q")))
(assert (not (str.contains (str.at lines 9) "alpha")))
(assert (not (str.contains (str.at lines 9) "rho")))
(assert (not (str.contains (str.at lines 9) "transition probabilities")))
(assert (< 10 (str.len lines)))
(assert (not (str.contains (str.at lines 10) "Rate parameters:")))
(assert (not (str.contains (str.at lines 10) "rate: ")))
(assert (not (str.contains (str.at lines 10) "matrix Q")))
(assert (not (str.contains (str.at lines 10) "alpha")))
(assert (not (str.contains (str.at lines 10) "rho")))
(assert (not (str.contains (str.at lines 10) "transition probabilities")))
(assert (< 11 (str.len lines)))
(assert (not (str.contains (str.at lines 11) "Rate parameters:")))
(assert (not (str.contains (str.at lines 11) "rate: ")))
(assert (not (str.contains (str.at lines 11) "matrix Q")))
(assert (not (str.contains (str.at lines 11) "alpha")))
(assert (not (str.contains (str.at lines 11) "rho")))
(assert (not (str.contains (str.at lines 11) "transition probabilities")))
(assert (< 12 (str.len lines)))
(assert (not (str.contains (str.at lines 12) "Rate parameters:")))
(assert (not (str.contains (str.at lines 12) "rate: ")))
(assert (not (str.contains (str.at lines 12) "matrix Q")))
(assert (not (str.contains (str.at lines 12) "alpha")))
(assert (not (str.contains (str.at lines 12) "rho")))
(assert (not (str.contains (str.at lines 12) "transition probabilities")))
(assert (< 13 (str.len lines)))
(assert (not (str.contains (str.at lines 13) "Rate parameters:")))
(assert (not (str.contains (str.at lines 13) "rate: ")))
(assert (not (str.contains (str.at lines 13) "matrix Q")))
(assert (not (str.contains (str.at lines 13) "alpha")))
(assert (not (str.contains (str.at lines 13) "rho")))
(assert (not (str.contains (str.at lines 13) "transition probabilities")))
(assert (< 14 (str.len lines)))
(assert (not (str.contains (str.at lines 14) "Rate parameters:")))
(assert (not (str.contains (str.at lines 14) "rate: ")))
(assert (not (str.contains (str.at lines 14) "matrix Q")))
(assert (not (str.contains (str.at lines 14) "alpha")))
(assert (not (str.contains (str.at lines 14) "rho")))
(assert (not (str.contains (str.at lines 14) "transition probabilities")))
(assert (< 15 (str.len lines)))
(assert (not (str.contains (str.at lines 15) "Rate parameters:")))
(assert (not (str.contains (str.at lines 15) "rate: ")))
(assert (not (str.contains (str.at lines 15) "matrix Q")))
(assert (not (str.contains (str.at lines 15) "alpha")))
(assert (not (str.contains (str.at lines 15) "rho")))
(assert (not (str.contains (str.at lines 15) "transition probabilities")))
(assert (< 16 (str.len lines)))
(assert (not (str.contains (str.at lines 16) "Rate parameters:")))
(assert (not (str.contains (str.at lines 16) "rate: ")))
(assert (not (str.contains (str.at lines 16) "matrix Q")))
(assert (not (str.contains (str.at lines 16) "alpha")))
(assert (not (str.contains (str.at lines 16) "rho")))
(assert (not (str.contains (str.at lines 16) "transition probabilities")))
(assert (< 17 (str.len lines)))
(assert (not (str.contains (str.at lines 17) "Rate parameters:")))
(assert (not (str.contains (str.at lines 17) "rate: ")))
(assert (not (str.contains (str.at lines 17) "matrix Q")))
(assert (not (str.contains (str.at lines 17) "alpha")))
(assert (not (str.contains (str.at lines 17) "rho")))
(assert (not (str.contains (str.at lines 17) "transition probabilities")))
(assert (< 18 (str.len lines)))
(assert (not (str.contains (str.at lines 18) "Rate parameters:")))
(assert (not (str.contains (str.at lines 18) "rate: ")))
(assert (not (str.contains (str.at lines 18) "matrix Q")))
(assert (not (str.contains (str.at lines 18) "alpha")))
(assert (not (str.contains (str.at lines 18) "rho")))
(assert (not (str.contains (str.at lines 18) "transition probabilities")))
(assert (< 19 (str.len lines)))
(assert (not (str.contains (str.at lines 19) "Rate parameters:")))
(assert (not (str.contains (str.at lines 19) "rate: ")))
(assert (not (str.contains (str.at lines 19) "matrix Q")))
(assert (not (str.contains (str.at lines 19) "alpha")))
(assert (not (str.contains (str.at lines 19) "rho")))
(assert (not (str.contains (str.at lines 19) "transition probabilities")))
(assert (< 20 (str.len lines)))
(assert (not (str.contains (str.at lines 20) "Rate parameters:")))
(assert (not (str.contains (str.at lines 20) "rate: ")))
(assert (not (str.contains (str.at lines 20) "matrix Q")))
(assert (not (str.contains (str.at lines 20) "alpha")))
(assert (not (str.contains (str.at lines 20) "rho")))
(assert (not (str.contains (str.at lines 20) "transition probabilities")))
(assert (< 21 (str.len lines)))
(assert (not (str.contains (str.at lines 21) "Rate parameters:")))
(assert (not (str.contains (str.at lines 21) "rate: ")))
(assert (not (str.contains (str.at lines 21) "matrix Q")))
(assert (not (str.contains (str.at lines 21) "alpha")))
(assert (not (str.contains (str.at lines 21) "rho")))
(assert (not (str.contains (str.at lines 21) "transition probabilities")))
(assert (< 22 (str.len lines)))
(assert (not (str.contains (str.at lines 22) "Rate parameters:")))
(assert (not (str.contains (str.at lines 22) "rate: ")))
(assert (not (str.contains (str.at lines 22) "matrix Q")))
(assert (not (str.contains (str.at lines 22) "alpha")))
(assert (not (str.contains (str.at lines 22) "rho")))
(assert (not (str.contains (str.at lines 22) "transition probabilities")))
(assert (< 23 (str.len lines)))
(assert (not (str.contains (str.at lines 23) "Rate parameters:")))
(assert (not (str.contains (str.at lines 23) "rate: ")))
(assert (not (str.contains (str.at lines 23) "matrix Q")))
(assert (not (str.contains (str.at lines 23) "alpha")))
(assert (not (str.contains (str.at lines 23) "rho")))
(assert (not (str.contains (str.at lines 23) "transition probabilities")))
(assert (< 24 (str.len lines)))
(assert (not (str.contains (str.at lines 24) "Rate parameters:")))
(assert (not (str.contains (str.at lines 24) "rate: ")))
(assert (not (str.contains (str.at lines 24) "matrix Q")))
(assert (not (str.contains (str.at lines 24) "alpha")))
(assert (not (str.contains (str.at lines 24) "rho")))
(assert (not (str.contains (str.at lines 24) "transition probabilities")))
(assert (< 25 (str.len lines)))
(assert (not (str.contains (str.at lines 25) "Rate parameters:")))
(assert (not (str.contains (str.at lines 25) "rate: ")))
(assert (not (str.contains (str.at lines 25) "matrix Q")))
(assert (not (str.contains (str.at lines 25) "alpha")))
(assert (not (str.contains (str.at lines 25) "rho")))
(assert (not (str.contains (str.at lines 25) "transition probabilities")))
(assert (< 26 (str.len lines)))
(assert (not (str.contains (str.at lines 26) "Rate parameters:")))
(assert (not (str.contains (str.at lines 26) "rate: ")))
(assert (not (str.contains (str.at lines 26) "matrix Q")))
(assert (not (str.contains (str.at lines 26) "alpha")))
(assert (not (str.contains (str.at lines 26) "rho")))
(assert (not (str.contains (str.at lines 26) "transition probabilities")))
(assert (< 27 (str.len lines)))
(assert (not (str.contains (str.at lines 27) "Rate parameters:")))
(assert (not (str.contains (str.at lines 27) "rate: ")))
(assert (not (str.contains (str.at lines 27) "matrix Q")))
(assert (not (str.contains (str.at lines 27) "alpha")))
(assert (not (str.contains (str.at lines 27) "rho")))
(assert (not (str.contains (str.at lines 27) "transition probabilities")))
(assert (< 28 (str.len lines)))
(assert (not (str.contains (str.at lines 28) "Rate parameters:")))
(assert (not (str.contains (str.at lines 28) "rate: ")))
(assert (not (str.contains (str.at lines 28) "matrix Q")))
(assert (not (str.contains (str.at lines 28) "alpha")))
(assert (not (str.contains (str.at lines 28) "rho")))
(assert (not (str.contains (str.at lines 28) "transition probabilities")))
(assert (< 29 (str.len lines)))
(assert (not (str.contains (str.at lines 29) "Rate parameters:")))
(assert (not (str.contains (str.at lines 29) "rate: ")))
(assert (not (str.contains (str.at lines 29) "matrix Q")))
(assert (not (str.contains (str.at lines 29) "alpha")))
(assert (not (str.contains (str.at lines 29) "rho")))
(assert (not (str.contains (str.at lines 29) "transition probabilities")))
(assert (< 30 (str.len lines)))
(assert (not (str.contains (str.at lines 30) "Rate parameters:")))
(assert (not (str.contains (str.at lines 30) "rate: ")))
(assert (not (str.contains (str.at lines 30) "matrix Q")))
(assert (not (str.contains (str.at lines 30) "alpha")))
(assert (not (str.contains (str.at lines 30) "rho")))
(assert (not (str.contains (str.at lines 30) "transition probabilities")))
(assert (< 31 (str.len lines)))
(assert (not (str.contains (str.at lines 31) "Rate parameters:")))
(assert (not (str.contains (str.at lines 31) "rate: ")))
(assert (not (str.contains (str.at lines 31) "matrix Q")))
(assert (not (str.contains (str.at lines 31) "alpha")))
(assert (not (str.contains (str.at lines 31) "rho")))
(assert (not (str.contains (str.at lines 31) "transition probabilities")))
(assert (< 32 (str.len lines)))
(assert (not (str.contains (str.at lines 32) "Rate parameters:")))
(assert (not (str.contains (str.at lines 32) "rate: ")))
(assert (not (str.contains (str.at lines 32) "matrix Q")))
(assert (not (str.contains (str.at lines 32) "alpha")))
(assert (not (str.contains (str.at lines 32) "rho")))
(assert (not (str.contains (str.at lines 32) "transition probabilities")))
(assert (< 33 (str.len lines)))
(assert (not (str.contains (str.at lines 33) "Rate parameters:")))
(assert (not (str.contains (str.at lines 33) "rate: ")))
(assert (not (str.contains (str.at lines 33) "matrix Q")))
(assert (not (str.contains (str.at lines 33) "alpha")))
(assert (not (str.contains (str.at lines 33) "rho")))
(assert (not (str.contains (str.at lines 33) "transition probabilities")))
(assert (< 34 (str.len lines)))
(assert (not (str.contains (str.at lines 34) "Rate parameters:")))
(assert (not (str.contains (str.at lines 34) "rate: ")))
(assert (not (str.contains (str.at lines 34) "matrix Q")))
(assert (not (str.contains (str.at lines 34) "alpha")))
(assert (not (str.contains (str.at lines 34) "rho")))
(assert (not (str.contains (str.at lines 34) "transition probabilities")))
(assert (< 35 (str.len lines)))
(assert (not (str.contains (str.at lines 35) "Rate parameters:")))
(assert (not (str.contains (str.at lines 35) "rate: ")))
(assert (not (str.contains (str.at lines 35) "matrix Q")))
(assert (not (str.contains (str.at lines 35) "alpha")))
(assert (not (str.contains (str.at lines 35) "rho")))
(assert (not (str.contains (str.at lines 35) "transition probabilities")))
(assert (< 36 (str.len lines)))
(assert (not (str.contains (str.at lines 36) "Rate parameters:")))
(assert (not (str.contains (str.at lines 36) "rate: ")))
(assert (not (str.contains (str.at lines 36) "matrix Q")))
(assert (not (str.contains (str.at lines 36) "alpha")))
(assert (not (str.contains (str.at lines 36) "rho")))
(assert (not (str.contains (str.at lines 36) "transition probabilities")))
(assert (< 37 (str.len lines)))
(assert (not (str.contains (str.at lines 37) "Rate parameters:")))
(assert (not (str.contains (str.at lines 37) "rate: ")))
(assert (not (str.contains (str.at lines 37) "matrix Q")))
(assert (not (str.contains (str.at lines 37) "alpha")))
(assert (not (str.contains (str.at lines 37) "rho")))
(assert (not (str.contains (str.at lines 37) "transition probabilities")))
(assert (< 38 (str.len lines)))
(assert (not (str.contains (str.at lines 38) "Rate parameters:")))
(assert (not (str.contains (str.at lines 38) "rate: ")))
(assert (not (str.contains (str.at lines 38) "matrix Q")))
(assert (not (str.contains (str.at lines 38) "alpha")))
(assert (not (str.contains (str.at lines 38) "rho")))
(assert (not (str.contains (str.at lines 38) "transition probabilities")))
(assert (< 39 (str.len lines)))
(assert (not (str.contains (str.at lines 39) "Rate parameters:")))
(assert (not (str.contains (str.at lines 39) "rate: ")))
(assert (not (str.contains (str.at lines 39) "matrix Q")))
(assert (not (str.contains (str.at lines 39) "alpha")))
(assert (not (str.contains (str.at lines 39) "rho")))
(assert (not (str.contains (str.at lines 39) "transition probabilities")))
(assert (< 40 (str.len lines)))
(assert (not (str.contains (str.at lines 40) "Rate parameters:")))
(assert (not (str.contains (str.at lines 40) "rate: ")))
(assert (not (str.contains (str.at lines 40) "matrix Q")))
(assert (not (str.contains (str.at lines 40) "alpha")))
(assert (not (str.contains (str.at lines 40) "rho")))
(assert (not (str.contains (str.at lines 40) "transition probabilities")))
(assert (< 41 (str.len lines)))
(assert (not (str.contains (str.at lines 41) "Rate parameters:")))
(assert (not (str.contains (str.at lines 41) "rate: ")))
(assert (not (str.contains (str.at lines 41) "matrix Q")))
(assert (not (str.contains (str.at lines 41) "alpha")))
(assert (not (str.contains (str.at lines 41) "rho")))
(assert (not (str.contains (str.at lines 41) "transition probabilities")))
(assert (< 42 (str.len lines)))
(assert (not (str.contains (str.at lines 42) "Rate parameters:")))
(assert (not (str.contains (str.at lines 42) "rate: ")))
(assert (not (str.contains (str.at lines 42) "matrix Q")))
(assert (not (str.contains (str.at lines 42) "alpha")))
(assert (not (str.contains (str.at lines 42) "rho")))
(assert (not (str.contains (str.at lines 42) "transition probabilities")))
(assert (< 43 (str.len lines)))
(assert (not (str.contains (str.at lines 43) "Rate parameters:")))
(assert (not (str.contains (str.at lines 43) "rate: ")))
(assert (not (str.contains (str.at lines 43) "matrix Q")))
(assert (not (str.contains (str.at lines 43) "alpha")))
(assert (not (str.contains (str.at lines 43) "rho")))
(assert (not (str.contains (str.at lines 43) "transition probabilities")))
(assert (< 44 (str.len lines)))
(assert (not (str.contains (str.at lines 44) "Rate parameters:")))
(assert (not (str.contains (str.at lines 44) "rate: ")))
(assert (not (str.contains (str.at lines 44) "matrix Q")))
(assert (not (str.contains (str.at lines 44) "alpha")))
(assert (not (str.contains (str.at lines 44) "rho")))
(assert (not (str.contains (str.at lines 44) "transition probabilities")))
(assert (< 45 (str.len lines)))
(assert (not (str.contains (str.at lines 45) "Rate parameters:")))
(assert (not (str.contains (str.at lines 45) "rate: ")))
(assert (not (str.contains (str.at lines 45) "matrix Q")))
(assert (not (str.contains (str.at lines 45) "alpha")))
(assert (not (str.contains (str.at lines 45) "rho")))
(assert (not (str.contains (str.at lines 45) "transition probabilities")))
(assert (< 46 (str.len lines)))
(assert (not (str.contains (str.at lines 46) "Rate parameters:")))
(assert (not (str.contains (str.at lines 46) "rate: ")))
(assert (not (str.contains (str.at lines 46) "matrix Q")))
(assert (not (str.contains (str.at lines 46) "alpha")))
(assert (not (str.contains (str.at lines 46) "rho")))
(assert (not (str.contains (str.at lines 46) "transition probabilities")))
(assert (< 47 (str.len lines)))
(assert (not (str.contains (str.at lines 47) "Rate parameters:")))
(assert (not (str.contains (str.at lines 47) "rate: ")))
(assert (not (str.contains (str.at lines 47) "matrix Q")))
(assert (not (str.contains (str.at lines 47) "alpha")))
(assert (not (str.contains (str.at lines 47) "rho")))
(assert (not (str.contains (str.at lines 47) "transition probabilities")))
(assert (< 48 (str.len lines)))
(assert (not (str.contains (str.at lines 48) "Rate parameters:")))
(assert (not (str.contains (str.at lines 48) "rate: ")))
(assert (not (str.contains (str.at lines 48) "matrix Q")))
(assert (not (str.contains (str.at lines 48) "alpha")))
(assert (not (str.contains (str.at lines 48) "rho")))
(assert (not (str.contains (str.at lines 48) "transition probabilities")))
(assert (< 49 (str.len lines)))
(assert (not (str.contains (str.at lines 49) "Rate parameters:")))
(assert (not (str.contains (str.at lines 49) "rate: ")))
(assert (not (str.contains (str.at lines 49) "matrix Q")))
(assert (not (str.contains (str.at lines 49) "alpha")))
(assert (not (str.contains (str.at lines 49) "rho")))
(assert (not (str.contains (str.at lines 49) "transition probabilities")))
(assert (< 50 (str.len lines)))
(assert (not (str.contains (str.at lines 50) "Rate parameters:")))
(assert (not (str.contains (str.at lines 50) "rate: ")))
(assert (not (str.contains (str.at lines 50) "matrix Q")))
(assert (not (str.contains (str.at lines 50) "alpha")))
(assert (not (str.contains (str.at lines 50) "rho")))
(assert (not (str.contains (str.at lines 50) "transition probabilities")))
(assert (< 51 (str.len lines)))
(assert (not (str.contains (str.at lines 51) "Rate parameters:")))
(assert (not (str.contains (str.at lines 51) "rate: ")))
(assert (not (str.contains (str.at lines 51) "matrix Q")))
(assert (not (str.contains (str.at lines 51) "alpha")))
(assert (not (str.contains (str.at lines 51) "rho")))
(assert (not (str.contains (str.at lines 51) "transition probabilities")))
(assert (< 52 (str.len lines)))
(assert (not (str.contains (str.at lines 52) "Rate parameters:")))
(assert (not (str.contains (str.at lines 52) "rate: ")))
(assert (not (str.contains (str.at lines 52) "matrix Q")))
(assert (not (str.contains (str.at lines 52) "alpha")))
(assert (not (str.contains (str.at lines 52) "rho")))
(assert (not (str.contains (str.at lines 52) "transition probabilities")))
(assert (< 53 (str.len lines)))
(assert (not (str.contains (str.at lines 53) "Rate parameters:")))
(assert (not (str.contains (str.at lines 53) "rate: ")))
(assert (not (str.contains (str.at lines 53) "matrix Q")))
(assert (not (str.contains (str.at lines 53) "alpha")))
(assert (not (str.contains (str.at lines 53) "rho")))
(assert (not (str.contains (str.at lines 53) "transition probabilities")))
(assert (< 54 (str.len lines)))
(assert (not (str.contains (str.at lines 54) "Rate parameters:")))
(assert (not (str.contains (str.at lines 54) "rate: ")))
(assert (not (str.contains (str.at lines 54) "matrix Q")))
(assert (not (str.contains (str.at lines 54) "alpha")))
(assert (not (str.contains (str.at lines 54) "rho")))
(assert (not (str.contains (str.at lines 54) "transition probabilities")))
(assert (< 55 (str.len lines)))
(assert (not (str.contains (str.at lines 55) "Rate parameters:")))
(assert (not (str.contains (str.at lines 55) "rate: ")))
(assert (not (str.contains (str.at lines 55) "matrix Q")))
(assert (not (str.contains (str.at lines 55) "alpha")))
(assert (not (str.contains (str.at lines 55) "rho")))
(assert (not (str.contains (str.at lines 55) "transition probabilities")))
(assert (< 56 (str.len lines)))
(assert (not (str.contains (str.at lines 56) "Rate parameters:")))
(assert (not (str.contains (str.at lines 56) "rate: ")))
(assert (not (str.contains (str.at lines 56) "matrix Q")))
(assert (not (str.contains (str.at lines 56) "alpha")))
(assert (not (str.contains (str.at lines 56) "rho")))
(assert (not (str.contains (str.at lines 56) "transition probabilities")))
(assert (< 57 (str.len lines)))
(assert (not (str.contains (str.at lines 57) "Rate parameters:")))
(assert (not (str.contains (str.at lines 57) "rate: ")))
(assert (not (str.contains (str.at lines 57) "matrix Q")))
(assert (not (str.contains (str.at lines 57) "alpha")))
(assert (not (str.contains (str.at lines 57) "rho")))
(assert (not (str.contains (str.at lines 57) "transition probabilities")))
(assert (< 58 (str.len lines)))
(assert (not (str.contains (str.at lines 58) "Rate parameters:")))
(assert (str.contains (str.at lines 58) "rate: "))
(check-sat)
(get-value (lines))
(get-value (parameters))
